4.0nm 11.0% GeSn quantum well + 10.0nm buffer
5.657
2	0	0
0	2	0
0	0	25
Sn	Si
25	775
Cartesian
1.75	0.25	1.75	Sn
1.50	1.00	0.50	Sn
1.75	1.25	3.75	Sn
0.50	1.00	2.50	Sn
0.75	1.75	1.25	Sn
0.50	0.00	0.50	Sn
1.25	1.25	3.25	Sn
1.50	1.00	3.50	Sn
0.50	0.50	3.00	Sn
1.50	0.00	6.50	Sn
1.25	0.75	6.75	Sn
0.50	1.50	1.00	Sn
0.25	1.25	6.25	Sn
1.00	1.00	5.00	Sn
1.25	0.25	4.25	Sn
0.25	1.75	6.75	Sn
0.25	0.75	6.75	Sn
1.50	1.50	4.00	Sn
1.50	0.50	2.00	Sn
0.50	0.50	2.00	Sn
0.00	1.50	0.50	Sn
0.50	0.50	0.00	Sn
1.75	0.25	2.75	Sn
0.50	0.50	1.00	Sn
1.75	0.75	1.25	Sn
0.25	0.75	5.75	Ge
0.25	1.75	3.75	Ge
1.50	0.50	0.00	Ge
0.25	1.75	2.75	Ge
0.00	0.50	4.50	Ge
0.75	1.75	2.25	Ge
1.50	0.00	3.50	Ge
0.75	0.75	0.25	Ge
0.75	0.75	3.25	Ge
1.00	0.00	4.00	Ge
1.00	0.50	6.50	Ge
1.50	0.00	0.50	Ge
0.00	0.00	6.00	Ge
0.25	0.75	3.75	Ge
1.50	0.00	2.50	Ge
1.50	0.00	5.50	Ge
1.25	1.25	5.25	Ge
1.50	0.50	4.00	Ge
1.00	1.00	6.00	Ge
0.50	1.50	3.00	Ge
0.75	0.25	0.75	Ge
0.50	1.00	6.50	Ge
1.50	0.50	1.00	Ge
1.25	1.75	3.75	Ge
0.75	0.75	1.25	Ge
1.75	1.75	0.25	Ge
1.50	1.50	5.00	Ge
1.25	0.25	1.25	Ge
1.50	1.00	1.50	Ge
0.75	0.75	6.25	Ge
1.25	0.75	1.75	Ge
1.50	1.00	2.50	Ge
1.25	0.75	2.75	Ge
0.00	1.50	5.50	Ge
0.25	0.75	2.75	Ge
0.50	0.50	5.00	Ge
0.00	0.00	5.00	Ge
1.25	0.25	2.25	Ge
0.00	1.00	6.00	Ge
0.00	1.50	1.50	Ge
0.25	1.25	4.25	Ge
1.25	0.75	5.75	Ge
0.75	0.75	4.25	Ge
0.75	1.75	6.25	Ge
1.25	1.25	6.25	Ge
1.00	0.50	2.50	Ge
1.75	1.75	1.25	Ge
0.75	0.25	3.75	Ge
0.75	1.75	0.25	Ge
0.50	0.00	4.50	Ge
0.00	0.50	3.50	Ge
0.50	1.50	6.00	Ge
0.75	0.75	5.25	Ge
0.00	0.00	1.00	Ge
0.75	1.25	6.75	Ge
1.00	1.50	4.50	Ge
1.75	0.25	3.75	Ge
1.75	0.75	4.25	Ge
0.00	0.50	2.50	Ge
0.00	0.00	2.00	Ge
1.25	0.25	6.25	Ge
1.50	0.50	5.00	Ge
0.50	1.50	5.00	Ge
1.75	0.25	5.75	Ge
0.75	0.25	5.75	Ge
1.00	1.00	3.00	Ge
0.50	0.00	2.50	Ge
0.00	1.00	4.00	Ge
1.50	0.50	3.00	Ge
1.00	0.50	4.50	Ge
0.50	1.50	4.00	Ge
1.75	0.75	3.25	Ge
0.50	1.00	3.50	Ge
0.25	1.75	4.75	Ge
0.75	0.25	2.75	Ge
1.75	1.25	5.75	Ge
1.25	1.25	1.25	Ge
0.00	1.50	6.50	Ge
1.00	0.00	6.00	Ge
1.75	1.75	5.25	Ge
1.75	0.75	5.25	Ge
0.00	1.50	2.50	Ge
0.00	0.50	6.50	Ge
1.25	1.25	4.25	Ge
0.75	1.25	1.75	Ge
0.25	0.25	2.25	Ge
1.00	0.00	3.00	Ge
1.00	1.50	0.50	Ge
0.25	0.25	0.25	Ge
1.25	0.75	4.75	Ge
0.75	1.25	2.75	Ge
0.25	1.75	0.75	Ge
0.75	1.75	3.25	Ge
1.25	0.25	3.25	Ge
1.75	1.25	6.75	Ge
1.75	1.25	4.75	Ge
0.50	1.00	0.50	Ge
1.00	0.00	2.00	Ge
0.25	0.75	4.75	Ge
1.50	1.00	6.50	Ge
1.00	1.50	6.50	Ge
1.25	1.75	1.75	Ge
0.25	1.75	1.75	Ge
1.25	1.75	0.75	Ge
0.75	1.25	5.75	Ge
0.00	0.00	3.00	Ge
1.75	1.75	2.25	Ge
1.00	1.00	0.00	Ge
0.75	0.25	6.75	Ge
0.50	1.00	4.50	Ge
0.00	1.00	3.00	Ge
0.25	0.25	1.25	Ge
1.25	0.75	0.75	Ge
0.50	0.00	1.50	Ge
1.75	0.75	0.25	Ge
1.25	0.25	0.25	Ge
0.75	0.25	1.75	Ge
0.50	1.50	0.00	Ge
1.50	1.50	3.00	Ge
1.25	1.75	5.75	Ge
0.25	1.25	3.25	Ge
1.00	0.50	0.50	Ge
0.25	1.25	5.25	Ge
1.50	1.00	4.50	Ge
0.50	1.00	1.50	Ge
1.00	1.50	1.50	Ge
0.25	1.75	5.75	Ge
1.25	1.25	2.25	Ge
1.00	1.00	2.00	Ge
1.50	0.00	1.50	Ge
0.25	1.25	0.25	Ge
1.50	1.00	5.50	Ge
0.50	0.50	4.00	Ge
0.75	0.75	2.25	Ge
0.75	1.75	4.25	Ge
1.25	1.75	4.75	Ge
0.00	0.50	5.50	Ge
1.75	0.25	6.75	Ge
0.50	1.00	5.50	Ge
1.25	0.75	3.75	Ge
0.00	1.00	2.00	Ge
0.00	0.00	0.00	Ge
1.00	1.00	4.00	Ge
0.50	0.00	3.50	Ge
1.75	1.75	6.25	Ge
0.50	0.00	5.50	Ge
0.00	0.50	1.50	Ge
1.50	0.50	6.00	Ge
1.00	0.00	0.00	Ge
0.75	1.25	4.75	Ge
0.75	1.25	0.75	Ge
1.50	1.50	6.00	Ge
1.50	1.50	2.00	Ge
0.00	1.00	5.00	Ge
1.75	1.75	3.25	Ge
1.00	1.50	5.50	Ge
0.25	0.25	6.25	Ge
0.50	0.00	6.50	Ge
1.75	0.75	2.25	Ge
1.00	0.00	1.00	Ge
1.00	0.50	3.50	Ge
1.75	0.75	6.25	Ge
1.75	1.25	1.75	Ge
1.00	0.00	5.00	Ge
0.25	0.75	1.75	Ge
1.75	1.75	4.25	Ge
1.75	1.25	0.75	Ge
1.25	1.25	0.25	Ge
0.75	0.25	4.75	Ge
1.00	1.00	1.00	Ge
0.75	1.75	5.25	Ge
0.25	0.25	3.25	Ge
1.00	1.50	3.50	Ge
1.25	0.25	5.25	Ge
0.00	1.00	0.00	Ge
1.50	1.50	1.00	Ge
0.25	1.25	1.25	Ge
0.25	1.25	2.25	Ge
1.25	1.75	6.75	Ge
1.75	1.25	2.75	Ge
1.50	1.50	0.00	Ge
1.75	0.25	4.75	Ge
0.00	1.00	1.00	Ge
0.25	0.25	4.25	Ge
1.75	0.25	0.75	Ge
0.00	0.00	4.00	Ge
1.25	1.75	2.75	Ge
0.75	1.25	3.75	Ge
0.00	0.50	0.50	Ge
1.00	0.50	1.50	Ge
0.25	0.75	0.75	Ge
0.00	1.50	4.50	Ge
0.25	0.25	5.25	Ge
0.50	1.50	2.00	Ge
0.50	0.50	6.00	Ge
0.00	1.50	3.50	Ge
1.00	1.50	2.50	Ge
1.50	0.00	4.50	Ge
1.00	0.50	5.50	Ge
0.00	0.00	7.00	Ge
0.50	0.50	7.00	Ge
0.00	0.50	7.50	Ge
0.50	0.00	7.50	Ge
0.25	0.25	7.25	Ge
0.75	0.75	7.25	Ge
0.25	0.75	7.75	Ge
0.75	0.25	7.75	Ge
0.00	1.00	7.00	Ge
0.50	1.50	7.00	Ge
0.00	1.50	7.50	Ge
0.50	1.00	7.50	Ge
0.25	1.25	7.25	Ge
0.75	1.75	7.25	Ge
0.25	1.75	7.75	Ge
0.75	1.25	7.75	Ge
1.00	0.00	7.00	Ge
1.50	0.50	7.00	Ge
1.00	0.50	7.50	Ge
1.50	0.00	7.50	Ge
1.25	0.25	7.25	Ge
1.75	0.75	7.25	Ge
1.25	0.75	7.75	Ge
1.75	0.25	7.75	Ge
1.00	1.00	7.00	Ge
1.50	1.50	7.00	Ge
1.00	1.50	7.50	Ge
1.50	1.00	7.50	Ge
1.25	1.25	7.25	Ge
1.75	1.75	7.25	Ge
1.25	1.75	7.75	Ge
1.75	1.25	7.75	Ge
0.00	0.00	8.00	Ge
0.50	0.50	8.00	Ge
0.00	0.50	8.50	Ge
0.50	0.00	8.50	Ge
0.25	0.25	8.25	Ge
0.75	0.75	8.25	Ge
0.25	0.75	8.75	Ge
0.75	0.25	8.75	Ge
0.00	1.00	8.00	Ge
0.50	1.50	8.00	Ge
0.00	1.50	8.50	Ge
0.50	1.00	8.50	Ge
0.25	1.25	8.25	Ge
0.75	1.75	8.25	Ge
0.25	1.75	8.75	Ge
0.75	1.25	8.75	Ge
1.00	0.00	8.00	Ge
1.50	0.50	8.00	Ge
1.00	0.50	8.50	Ge
1.50	0.00	8.50	Ge
1.25	0.25	8.25	Ge
1.75	0.75	8.25	Ge
1.25	0.75	8.75	Ge
1.75	0.25	8.75	Ge
1.00	1.00	8.00	Ge
1.50	1.50	8.00	Ge
1.00	1.50	8.50	Ge
1.50	1.00	8.50	Ge
1.25	1.25	8.25	Ge
1.75	1.75	8.25	Ge
1.25	1.75	8.75	Ge
1.75	1.25	8.75	Ge
0.00	0.00	9.00	Ge
0.50	0.50	9.00	Ge
0.00	0.50	9.50	Ge
0.50	0.00	9.50	Ge
0.25	0.25	9.25	Ge
0.75	0.75	9.25	Ge
0.25	0.75	9.75	Ge
0.75	0.25	9.75	Ge
0.00	1.00	9.00	Ge
0.50	1.50	9.00	Ge
0.00	1.50	9.50	Ge
0.50	1.00	9.50	Ge
0.25	1.25	9.25	Ge
0.75	1.75	9.25	Ge
0.25	1.75	9.75	Ge
0.75	1.25	9.75	Ge
1.00	0.00	9.00	Ge
1.50	0.50	9.00	Ge
1.00	0.50	9.50	Ge
1.50	0.00	9.50	Ge
1.25	0.25	9.25	Ge
1.75	0.75	9.25	Ge
1.25	0.75	9.75	Ge
1.75	0.25	9.75	Ge
1.00	1.00	9.00	Ge
1.50	1.50	9.00	Ge
1.00	1.50	9.50	Ge
1.50	1.00	9.50	Ge
1.25	1.25	9.25	Ge
1.75	1.75	9.25	Ge
1.25	1.75	9.75	Ge
1.75	1.25	9.75	Ge
0.00	0.00	10.00	Ge
0.50	0.50	10.00	Ge
0.00	0.50	10.50	Ge
0.50	0.00	10.50	Ge
0.25	0.25	10.25	Ge
0.75	0.75	10.25	Ge
0.25	0.75	10.75	Ge
0.75	0.25	10.75	Ge
0.00	1.00	10.00	Ge
0.50	1.50	10.00	Ge
0.00	1.50	10.50	Ge
0.50	1.00	10.50	Ge
0.25	1.25	10.25	Ge
0.75	1.75	10.25	Ge
0.25	1.75	10.75	Ge
0.75	1.25	10.75	Ge
1.00	0.00	10.00	Ge
1.50	0.50	10.00	Ge
1.00	0.50	10.50	Ge
1.50	0.00	10.50	Ge
1.25	0.25	10.25	Ge
1.75	0.75	10.25	Ge
1.25	0.75	10.75	Ge
1.75	0.25	10.75	Ge
1.00	1.00	10.00	Ge
1.50	1.50	10.00	Ge
1.00	1.50	10.50	Ge
1.50	1.00	10.50	Ge
1.25	1.25	10.25	Ge
1.75	1.75	10.25	Ge
1.25	1.75	10.75	Ge
1.75	1.25	10.75	Ge
0.00	0.00	11.00	Ge
0.50	0.50	11.00	Ge
0.00	0.50	11.50	Ge
0.50	0.00	11.50	Ge
0.25	0.25	11.25	Ge
0.75	0.75	11.25	Ge
0.25	0.75	11.75	Ge
0.75	0.25	11.75	Ge
0.00	1.00	11.00	Ge
0.50	1.50	11.00	Ge
0.00	1.50	11.50	Ge
0.50	1.00	11.50	Ge
0.25	1.25	11.25	Ge
0.75	1.75	11.25	Ge
0.25	1.75	11.75	Ge
0.75	1.25	11.75	Ge
1.00	0.00	11.00	Ge
1.50	0.50	11.00	Ge
1.00	0.50	11.50	Ge
1.50	0.00	11.50	Ge
1.25	0.25	11.25	Ge
1.75	0.75	11.25	Ge
1.25	0.75	11.75	Ge
1.75	0.25	11.75	Ge
1.00	1.00	11.00	Ge
1.50	1.50	11.00	Ge
1.00	1.50	11.50	Ge
1.50	1.00	11.50	Ge
1.25	1.25	11.25	Ge
1.75	1.75	11.25	Ge
1.25	1.75	11.75	Ge
1.75	1.25	11.75	Ge
0.00	0.00	12.00	Ge
0.50	0.50	12.00	Ge
0.00	0.50	12.50	Ge
0.50	0.00	12.50	Ge
0.25	0.25	12.25	Ge
0.75	0.75	12.25	Ge
0.25	0.75	12.75	Ge
0.75	0.25	12.75	Ge
0.00	1.00	12.00	Ge
0.50	1.50	12.00	Ge
0.00	1.50	12.50	Ge
0.50	1.00	12.50	Ge
0.25	1.25	12.25	Ge
0.75	1.75	12.25	Ge
0.25	1.75	12.75	Ge
0.75	1.25	12.75	Ge
1.00	0.00	12.00	Ge
1.50	0.50	12.00	Ge
1.00	0.50	12.50	Ge
1.50	0.00	12.50	Ge
1.25	0.25	12.25	Ge
1.75	0.75	12.25	Ge
1.25	0.75	12.75	Ge
1.75	0.25	12.75	Ge
1.00	1.00	12.00	Ge
1.50	1.50	12.00	Ge
1.00	1.50	12.50	Ge
1.50	1.00	12.50	Ge
1.25	1.25	12.25	Ge
1.75	1.75	12.25	Ge
1.25	1.75	12.75	Ge
1.75	1.25	12.75	Ge
0.00	0.00	13.00	Ge
0.50	0.50	13.00	Ge
0.00	0.50	13.50	Ge
0.50	0.00	13.50	Ge
0.25	0.25	13.25	Ge
0.75	0.75	13.25	Ge
0.25	0.75	13.75	Ge
0.75	0.25	13.75	Ge
0.00	1.00	13.00	Ge
0.50	1.50	13.00	Ge
0.00	1.50	13.50	Ge
0.50	1.00	13.50	Ge
0.25	1.25	13.25	Ge
0.75	1.75	13.25	Ge
0.25	1.75	13.75	Ge
0.75	1.25	13.75	Ge
1.00	0.00	13.00	Ge
1.50	0.50	13.00	Ge
1.00	0.50	13.50	Ge
1.50	0.00	13.50	Ge
1.25	0.25	13.25	Ge
1.75	0.75	13.25	Ge
1.25	0.75	13.75	Ge
1.75	0.25	13.75	Ge
1.00	1.00	13.00	Ge
1.50	1.50	13.00	Ge
1.00	1.50	13.50	Ge
1.50	1.00	13.50	Ge
1.25	1.25	13.25	Ge
1.75	1.75	13.25	Ge
1.25	1.75	13.75	Ge
1.75	1.25	13.75	Ge
0.00	0.00	14.00	Ge
0.50	0.50	14.00	Ge
0.00	0.50	14.50	Ge
0.50	0.00	14.50	Ge
0.25	0.25	14.25	Ge
0.75	0.75	14.25	Ge
0.25	0.75	14.75	Ge
0.75	0.25	14.75	Ge
0.00	1.00	14.00	Ge
0.50	1.50	14.00	Ge
0.00	1.50	14.50	Ge
0.50	1.00	14.50	Ge
0.25	1.25	14.25	Ge
0.75	1.75	14.25	Ge
0.25	1.75	14.75	Ge
0.75	1.25	14.75	Ge
1.00	0.00	14.00	Ge
1.50	0.50	14.00	Ge
1.00	0.50	14.50	Ge
1.50	0.00	14.50	Ge
1.25	0.25	14.25	Ge
1.75	0.75	14.25	Ge
1.25	0.75	14.75	Ge
1.75	0.25	14.75	Ge
1.00	1.00	14.00	Ge
1.50	1.50	14.00	Ge
1.00	1.50	14.50	Ge
1.50	1.00	14.50	Ge
1.25	1.25	14.25	Ge
1.75	1.75	14.25	Ge
1.25	1.75	14.75	Ge
1.75	1.25	14.75	Ge
0.00	0.00	15.00	Ge
0.50	0.50	15.00	Ge
0.00	0.50	15.50	Ge
0.50	0.00	15.50	Ge
0.25	0.25	15.25	Ge
0.75	0.75	15.25	Ge
0.25	0.75	15.75	Ge
0.75	0.25	15.75	Ge
0.00	1.00	15.00	Ge
0.50	1.50	15.00	Ge
0.00	1.50	15.50	Ge
0.50	1.00	15.50	Ge
0.25	1.25	15.25	Ge
0.75	1.75	15.25	Ge
0.25	1.75	15.75	Ge
0.75	1.25	15.75	Ge
1.00	0.00	15.00	Ge
1.50	0.50	15.00	Ge
1.00	0.50	15.50	Ge
1.50	0.00	15.50	Ge
1.25	0.25	15.25	Ge
1.75	0.75	15.25	Ge
1.25	0.75	15.75	Ge
1.75	0.25	15.75	Ge
1.00	1.00	15.00	Ge
1.50	1.50	15.00	Ge
1.00	1.50	15.50	Ge
1.50	1.00	15.50	Ge
1.25	1.25	15.25	Ge
1.75	1.75	15.25	Ge
1.25	1.75	15.75	Ge
1.75	1.25	15.75	Ge
0.00	0.00	16.00	Ge
0.50	0.50	16.00	Ge
0.00	0.50	16.50	Ge
0.50	0.00	16.50	Ge
0.25	0.25	16.25	Ge
0.75	0.75	16.25	Ge
0.25	0.75	16.75	Ge
0.75	0.25	16.75	Ge
0.00	1.00	16.00	Ge
0.50	1.50	16.00	Ge
0.00	1.50	16.50	Ge
0.50	1.00	16.50	Ge
0.25	1.25	16.25	Ge
0.75	1.75	16.25	Ge
0.25	1.75	16.75	Ge
0.75	1.25	16.75	Ge
1.00	0.00	16.00	Ge
1.50	0.50	16.00	Ge
1.00	0.50	16.50	Ge
1.50	0.00	16.50	Ge
1.25	0.25	16.25	Ge
1.75	0.75	16.25	Ge
1.25	0.75	16.75	Ge
1.75	0.25	16.75	Ge
1.00	1.00	16.00	Ge
1.50	1.50	16.00	Ge
1.00	1.50	16.50	Ge
1.50	1.00	16.50	Ge
1.25	1.25	16.25	Ge
1.75	1.75	16.25	Ge
1.25	1.75	16.75	Ge
1.75	1.25	16.75	Ge
0.00	0.00	17.00	Ge
0.50	0.50	17.00	Ge
0.00	0.50	17.50	Ge
0.50	0.00	17.50	Ge
0.25	0.25	17.25	Ge
0.75	0.75	17.25	Ge
0.25	0.75	17.75	Ge
0.75	0.25	17.75	Ge
0.00	1.00	17.00	Ge
0.50	1.50	17.00	Ge
0.00	1.50	17.50	Ge
0.50	1.00	17.50	Ge
0.25	1.25	17.25	Ge
0.75	1.75	17.25	Ge
0.25	1.75	17.75	Ge
0.75	1.25	17.75	Ge
1.00	0.00	17.00	Ge
1.50	0.50	17.00	Ge
1.00	0.50	17.50	Ge
1.50	0.00	17.50	Ge
1.25	0.25	17.25	Ge
1.75	0.75	17.25	Ge
1.25	0.75	17.75	Ge
1.75	0.25	17.75	Ge
1.00	1.00	17.00	Ge
1.50	1.50	17.00	Ge
1.00	1.50	17.50	Ge
1.50	1.00	17.50	Ge
1.25	1.25	17.25	Ge
1.75	1.75	17.25	Ge
1.25	1.75	17.75	Ge
1.75	1.25	17.75	Ge
0.00	0.00	18.00	Ge
0.50	0.50	18.00	Ge
0.00	0.50	18.50	Ge
0.50	0.00	18.50	Ge
0.25	0.25	18.25	Ge
0.75	0.75	18.25	Ge
0.25	0.75	18.75	Ge
0.75	0.25	18.75	Ge
0.00	1.00	18.00	Ge
0.50	1.50	18.00	Ge
0.00	1.50	18.50	Ge
0.50	1.00	18.50	Ge
0.25	1.25	18.25	Ge
0.75	1.75	18.25	Ge
0.25	1.75	18.75	Ge
0.75	1.25	18.75	Ge
1.00	0.00	18.00	Ge
1.50	0.50	18.00	Ge
1.00	0.50	18.50	Ge
1.50	0.00	18.50	Ge
1.25	0.25	18.25	Ge
1.75	0.75	18.25	Ge
1.25	0.75	18.75	Ge
1.75	0.25	18.75	Ge
1.00	1.00	18.00	Ge
1.50	1.50	18.00	Ge
1.00	1.50	18.50	Ge
1.50	1.00	18.50	Ge
1.25	1.25	18.25	Ge
1.75	1.75	18.25	Ge
1.25	1.75	18.75	Ge
1.75	1.25	18.75	Ge
0.00	0.00	19.00	Ge
0.50	0.50	19.00	Ge
0.00	0.50	19.50	Ge
0.50	0.00	19.50	Ge
0.25	0.25	19.25	Ge
0.75	0.75	19.25	Ge
0.25	0.75	19.75	Ge
0.75	0.25	19.75	Ge
0.00	1.00	19.00	Ge
0.50	1.50	19.00	Ge
0.00	1.50	19.50	Ge
0.50	1.00	19.50	Ge
0.25	1.25	19.25	Ge
0.75	1.75	19.25	Ge
0.25	1.75	19.75	Ge
0.75	1.25	19.75	Ge
1.00	0.00	19.00	Ge
1.50	0.50	19.00	Ge
1.00	0.50	19.50	Ge
1.50	0.00	19.50	Ge
1.25	0.25	19.25	Ge
1.75	0.75	19.25	Ge
1.25	0.75	19.75	Ge
1.75	0.25	19.75	Ge
1.00	1.00	19.00	Ge
1.50	1.50	19.00	Ge
1.00	1.50	19.50	Ge
1.50	1.00	19.50	Ge
1.25	1.25	19.25	Ge
1.75	1.75	19.25	Ge
1.25	1.75	19.75	Ge
1.75	1.25	19.75	Ge
0.00	0.00	20.00	Ge
0.50	0.50	20.00	Ge
0.00	0.50	20.50	Ge
0.50	0.00	20.50	Ge
0.25	0.25	20.25	Ge
0.75	0.75	20.25	Ge
0.25	0.75	20.75	Ge
0.75	0.25	20.75	Ge
0.00	1.00	20.00	Ge
0.50	1.50	20.00	Ge
0.00	1.50	20.50	Ge
0.50	1.00	20.50	Ge
0.25	1.25	20.25	Ge
0.75	1.75	20.25	Ge
0.25	1.75	20.75	Ge
0.75	1.25	20.75	Ge
1.00	0.00	20.00	Ge
1.50	0.50	20.00	Ge
1.00	0.50	20.50	Ge
1.50	0.00	20.50	Ge
1.25	0.25	20.25	Ge
1.75	0.75	20.25	Ge
1.25	0.75	20.75	Ge
1.75	0.25	20.75	Ge
1.00	1.00	20.00	Ge
1.50	1.50	20.00	Ge
1.00	1.50	20.50	Ge
1.50	1.00	20.50	Ge
1.25	1.25	20.25	Ge
1.75	1.75	20.25	Ge
1.25	1.75	20.75	Ge
1.75	1.25	20.75	Ge
0.00	0.00	21.00	Ge
0.50	0.50	21.00	Ge
0.00	0.50	21.50	Ge
0.50	0.00	21.50	Ge
0.25	0.25	21.25	Ge
0.75	0.75	21.25	Ge
0.25	0.75	21.75	Ge
0.75	0.25	21.75	Ge
0.00	1.00	21.00	Ge
0.50	1.50	21.00	Ge
0.00	1.50	21.50	Ge
0.50	1.00	21.50	Ge
0.25	1.25	21.25	Ge
0.75	1.75	21.25	Ge
0.25	1.75	21.75	Ge
0.75	1.25	21.75	Ge
1.00	0.00	21.00	Ge
1.50	0.50	21.00	Ge
1.00	0.50	21.50	Ge
1.50	0.00	21.50	Ge
1.25	0.25	21.25	Ge
1.75	0.75	21.25	Ge
1.25	0.75	21.75	Ge
1.75	0.25	21.75	Ge
1.00	1.00	21.00	Ge
1.50	1.50	21.00	Ge
1.00	1.50	21.50	Ge
1.50	1.00	21.50	Ge
1.25	1.25	21.25	Ge
1.75	1.75	21.25	Ge
1.25	1.75	21.75	Ge
1.75	1.25	21.75	Ge
0.00	0.00	22.00	Ge
0.50	0.50	22.00	Ge
0.00	0.50	22.50	Ge
0.50	0.00	22.50	Ge
0.25	0.25	22.25	Ge
0.75	0.75	22.25	Ge
0.25	0.75	22.75	Ge
0.75	0.25	22.75	Ge
0.00	1.00	22.00	Ge
0.50	1.50	22.00	Ge
0.00	1.50	22.50	Ge
0.50	1.00	22.50	Ge
0.25	1.25	22.25	Ge
0.75	1.75	22.25	Ge
0.25	1.75	22.75	Ge
0.75	1.25	22.75	Ge
1.00	0.00	22.00	Ge
1.50	0.50	22.00	Ge
1.00	0.50	22.50	Ge
1.50	0.00	22.50	Ge
1.25	0.25	22.25	Ge
1.75	0.75	22.25	Ge
1.25	0.75	22.75	Ge
1.75	0.25	22.75	Ge
1.00	1.00	22.00	Ge
1.50	1.50	22.00	Ge
1.00	1.50	22.50	Ge
1.50	1.00	22.50	Ge
1.25	1.25	22.25	Ge
1.75	1.75	22.25	Ge
1.25	1.75	22.75	Ge
1.75	1.25	22.75	Ge
0.00	0.00	23.00	Ge
0.50	0.50	23.00	Ge
0.00	0.50	23.50	Ge
0.50	0.00	23.50	Ge
0.25	0.25	23.25	Ge
0.75	0.75	23.25	Ge
0.25	0.75	23.75	Ge
0.75	0.25	23.75	Ge
0.00	1.00	23.00	Ge
0.50	1.50	23.00	Ge
0.00	1.50	23.50	Ge
0.50	1.00	23.50	Ge
0.25	1.25	23.25	Ge
0.75	1.75	23.25	Ge
0.25	1.75	23.75	Ge
0.75	1.25	23.75	Ge
1.00	0.00	23.00	Ge
1.50	0.50	23.00	Ge
1.00	0.50	23.50	Ge
1.50	0.00	23.50	Ge
1.25	0.25	23.25	Ge
1.75	0.75	23.25	Ge
1.25	0.75	23.75	Ge
1.75	0.25	23.75	Ge
1.00	1.00	23.00	Ge
1.50	1.50	23.00	Ge
1.00	1.50	23.50	Ge
1.50	1.00	23.50	Ge
1.25	1.25	23.25	Ge
1.75	1.75	23.25	Ge
1.25	1.75	23.75	Ge
1.75	1.25	23.75	Ge
0.00	0.00	24.00	Ge
0.50	0.50	24.00	Ge
0.00	0.50	24.50	Ge
0.50	0.00	24.50	Ge
0.25	0.25	24.25	Ge
0.75	0.75	24.25	Ge
0.25	0.75	24.75	Ge
0.75	0.25	24.75	Ge
0.00	1.00	24.00	Ge
0.50	1.50	24.00	Ge
0.00	1.50	24.50	Ge
0.50	1.00	24.50	Ge
0.25	1.25	24.25	Ge
0.75	1.75	24.25	Ge
0.25	1.75	24.75	Ge
0.75	1.25	24.75	Ge
1.00	0.00	24.00	Ge
1.50	0.50	24.00	Ge
1.00	0.50	24.50	Ge
1.50	0.00	24.50	Ge
1.25	0.25	24.25	Ge
1.75	0.75	24.25	Ge
1.25	0.75	24.75	Ge
1.75	0.25	24.75	Ge
1.00	1.00	24.00	Ge
1.50	1.50	24.00	Ge
1.00	1.50	24.50	Ge
1.50	1.00	24.50	Ge
1.25	1.25	24.25	Ge
1.75	1.75	24.25	Ge
1.25	1.75	24.75	Ge
1.75	1.25	24.75	Ge
